StringID Type x y demand ReadyTime DueDate ServiceTime
D0 d 40 50.0 0.0 0.0 960.0 0.0
Dt d 40 50.0 0.0 0.0 960.0 0.0
C23 c2 38 5.0 30.0 0.0 904.0 10.0
C19 c3 42 10.0 40.0 0.0 909.0 10.0
C49 c1 42 12.0 10.0 0.0 911.0 10.0
C4 c2 20 80.0 40.0 712.0 832.0 10.0
C81 c1 49 58.0 10.0 0.0 937.0 10.0
P0 p 18 16.0 0.0 0.0 960.0 45.0
param CV := 1000.0 nan nan nan nan
param V := 1.0 nan nan nan nan
